288,149
288,129
270,133
256,141
256,157
246,157
236,169
228,169
228,161
220,169
212,169
204,169
196,169
188,169
196,161
188,145
172,145
164,145
156,145
148,145
140,145
148,169
164,169
172,169
156,169
140,169
132,169
124,169
116,161
